50
120 120
1 81 917
2 80 832
3 78 625
4 77 183
5 76 763
6 75 346
7 74 86
8 70 697
9 69 933
10 68 300
11 67 542
12 67 50
13 65 994
14 64 493
15 62 671
16 61 657
17 60 924
18 59 598
19 59 947
20 59 132
21 59 404
22 58 633
23 57 762
24 53 599
25 53 247
26 52 796
27 52 774
28 51 546
29 48 330
30 48 572
31 45 91
32 45 502
33 44 655
34 44 873
35 43 718
36 43 348
37 42 325
38 42 313
39 42 291
40 41 437
41 40 620
42 38 906
43 37 875
44 36 875
45 36 502
46 35 984
47 30 187
48 27 566
49 24 885
50 24 561
